Geographic Exponential Decay
40 173 27 194 247 251 136 147 62 283 187 142 253 17 97 81 6 250 72 85 30 71 49 267 316 271 20 158 238 292 123 303 228 233 145 56 210 70 24 199 43
p edge 320 1271
e 0 174 3.0
e 0 290 5.0
e 1 4 1.0
e 2 100 17.0
e 2 176 10.0
e 2 97 55.0
e 2 105 13.0
e 2 174 14.0
e 2 163 13.0
e 2 4 1.0
e 3 296 17.0
e 5 79 5.0
e 5 48 11.0
e 6 156 52.0
e 6 252 67.0
e 6 79 49.0
e 6 148 64.0
e 6 214 71.0
e 6 292 56.0
e 6 225 43.0
e 6 226 51.0
e 6 54 6.0
e 6 107 31.0
e 6 217 58.0
e 6 159 96.0
e 6 94 37.0
e 6 181 28.0
e 6 116 17.0
e 6 211 43.0
e 6 7 80.0
e 6 160 34.0
e 6 109 61.0
e 6 224 62.0
e 6 89 70.0
e 6 138 79.0
e 6 310 43.0
e 6 241 11.0
e 6 129 92.0
e 6 69 83.0
e 6 206 75.0
e 7 167 1.0
e 8 6 93.0
e 9 256 2.0
e 10 270 6.0
e 10 304 9.0
e 11 218 3.0
e 12 217 1.0
e 12 184 1.0
e 13 120 3.0
e 14 135 4.0
e 15 296 11.0
e 16 244 1.0
e 17 30 100.0
e 17 25 24.0
e 17 259 93.0
e 17 317 13.0
e 17 266 69.0
e 17 119 7.0
e 17 18 22.0
e 17 318 83.0
e 17 221 21.0
e 17 71 1.0
e 17 230 6.0
e 17 61 25.0
e 17 35 76.0
e 17 94 48.0
e 17 293 63.0
e 17 87 75.0
e 17 144 21.0
e 17 260 98.0
e 17 194 60.0
e 17 216 14.0
e 17 23 64.0
e 17 72 2.0
e 17 26 36.0
e 17 59 38.0
e 17 117 71.0
e 17 102 72.0
e 17 83 33.0
e 19 188 1.0
e 20 103 75.0
e 20 237 55.0
e 20 235 100.0
e 20 197 14.0
e 20 283 34.0
e 20 94 14.0
e 20 316 65.0
e 20 39 91.0
e 20 9 45.0
e 20 273 40.0
e 20 318 88.0
e 20 138 59.0
e 20 49 30.0
e 20 83 2.0
e 20 5 54.0
e 20 159 75.0
e 20 234 58.0
e 20 31 56.0
e 20 294 7.0
e 20 113 22.0
e 20 246 99.0
e 20 296 82.0
e 20 190 76.0
e 20 81 81.0
e 20 117 81.0
e 20 288 60.0
e 20 34 67.0
e 21 257 1.0
e 22 140 1.0
e 23 57 10.0
e 23 280 4.0
e 23 8 6.0
e 24 317 54.0
e 24 56 49.0
e 24 36 34.0
e 24 46 54.0
e 24 258 22.0
e 24 102 56.0
e 24 185 89.0
e 24 47 71.0
e 24 286 13.0
e 24 44 93.0
e 24 15 59.0
e 24 45 63.0
e 24 208 68.0
e 24 81 52.0
e 24 253 3.0
e 24 275 42.0
e 24 308 65.0
e 24 145 88.0
e 24 138 4.0
e 24 232 57.0
e 24 259 50.0
e 24 65 68.0
e 24 129 57.0
e 24 222 19.0
e 24 57 95.0
e 24 247 27.0
e 24 41 39.0
e 26 37 2.0
e 27 97 44.0
e 27 114 53.0
e 27 313 63.0
e 27 14 66.0
e 27 189 9.0
e 27 217 23.0
e 27 218 47.0
e 27 174 62.0
e 27 223 17.0
e 27 166 53.0
e 27 33 67.0
e 27 61 18.0
e 27 63 94.0
e 27 295 66.0
e 27 177 86.0
e 27 205 15.0
e 27 60 32.0
e 27 94 13.0
e 27 229 1.0
e 27 1 88.0
e 27 93 83.0
e 27 137 35.0
e 27 276 79.0
e 27 87 84.0
e 27 206 67.0
e 27 303 71.0
e 27 291 99.0
e 28 70 38.0
e 29 206 3.0
e 29 278 2.0
e 29 79 1.0
e 29 270 16.0
e 30 31 63.0
e 30 98 80.0
e 30 172 72.0
e 30 163 75.0
e 30 47 100.0
e 30 166 23.0
e 30 260 13.0
e 30 243 40.0
e 30 290 7.0
e 30 111 98.0
e 30 195 100.0
e 30 255 20.0
e 30 160 78.0
e 30 35 5.0
e 30 232 66.0
e 30 215 38.0
e 30 20 56.0
e 30 297 69.0
e 30 261 74.0
e 30 23 67.0
e 30 104 98.0
e 30 121 70.0
e 30 314 69.0
e 30 70 20.0
e 30 88 69.0
e 30 252 70.0
e 32 191 1.0
e 34 175 7.0
e 36 157 3.0
e 38 188 3.0
e 38 229 22.0
e 40 220 23.0
e 41 151 2.0
e 42 173 44.0
e 43 254 98.0
e 43 272 59.0
e 43 294 45.0
e 43 84 20.0
e 43 79 91.0
e 43 165 48.0
e 43 128 41.0
e 43 140 75.0
e 43 122 98.0
e 43 200 66.0
e 43 118 77.0
e 43 55 51.0
e 43 217 26.0
e 43 148 78.0
e 43 60 74.0
e 43 96 69.0
e 43 268 9.0
e 43 167 21.0
e 43 141 80.0
e 43 303 96.0
e 43 237 46.0
e 43 231 11.0
e 43 2 22.0
e 43 56 4.0
e 43 68 84.0
e 43 269 7.0
e 43 32 13.0
e 45 150 4.0
e 45 133 1.0
e 45 107 7.0
e 46 132 1.0
e 48 100 9.0
e 48 263 6.0
e 48 213 22.0
e 49 299 15.0
e 49 273 73.0
e 49 224 20.0
e 49 279 56.0
e 49 205 96.0
e 49 147 93.0
e 49 113 46.0
e 49 118 30.0
e 49 102 20.0
e 49 236 52.0
e 49 79 26.0
e 49 289 57.0
e 49 240 11.0
e 49 153 25.0
e 49 95 97.0
e 49 82 6.0
e 49 275 2.0
e 49 250 62.0
e 49 132 73.0
e 49 173 3.0
e 49 208 76.0
e 49 96 82.0
e 49 303 42.0
e 49 29 72.0
e 49 225 32.0
e 49 51 76.0
e 50 188 2.0
e 52 204 9.0
e 52 301 8.0
e 52 137 8.0
e 52 23 10.0
e 53 197 3.0
e 53 166 1.0
e 56 17 38.0
e 56 66 68.0
e 56 147 58.0
e 56 169 19.0
e 56 254 83.0
e 56 159 10.0
e 56 23 91.0
e 56 145 25.0
e 56 28 49.0
e 56 117 10.0
e 56 82 2.0
e 56 85 98.0
e 56 265 48.0
e 56 40 37.0
e 56 108 42.0
e 56 198 30.0
e 56 140 66.0
e 56 109 30.0
e 56 174 92.0
e 56 287 9.0
e 56 136 80.0
e 56 110 53.0
e 56 249 99.0
e 56 13 4.0
e 56 241 32.0
e 58 163 4.0
e 59 56 52.0
e 62 170 75.0
e 62 298 78.0
e 62 4 94.0
e 62 218 36.0
e 62 115 92.0
e 62 222 2.0
e 62 279 41.0
e 62 140 72.0
e 62 230 74.0
e 62 0 28.0
e 62 316 63.0
e 62 202 28.0
e 62 60 48.0
e 62 149 24.0
e 62 286 92.0
e 62 2 29.0
e 62 190 92.0
e 62 61 89.0
e 62 3 95.0
e 62 219 99.0
e 62 1 88.0
e 62 141 17.0
e 62 215 64.0
e 62 5 33.0
e 62 59 74.0
e 62 178 66.0
e 62 192 63.0
e 63 122 1.0
e 64 254 1.0
e 64 206 18.0
e 66 239 1.0
e 66 4 4.0
e 66 9 4.0
e 67 293 10.0
e 67 56 29.0
e 67 137 11.0
e 67 189 6.0
e 69 294 4.0
e 70 191 24.0
e 70 170 6.0
e 70 230 15.0
e 70 142 42.0
e 70 294 48.0
e 70 228 67.0
e 70 94 87.0
e 70 298 18.0
e 70 4 15.0
e 70 93 7.0
e 70 243 62.0
e 70 24 79.0
e 70 211 33.0
e 70 181 67.0
e 70 176 59.0
e 70 65 37.0
e 70 11 18.0
e 70 36 91.0
e 70 216 78.0
e 70 172 21.0
e 70 135 3.0
e 70 251 81.0
e 70 71 98.0
e 70 45 62.0
e 70 199 3.0
e 71 150 95.0
e 71 297 36.0
e 71 188 63.0
e 71 84 8.0
e 71 80 42.0
e 71 7 33.0
e 71 303 59.0
e 71 76 100.0
e 71 269 26.0
e 71 114 18.0
e 71 18 71.0
e 71 65 94.0
e 71 166 26.0
e 71 242 32.0
e 71 160 14.0
e 71 99 71.0
e 71 262 21.0
e 71 218 3.0
e 71 243 98.0
e 71 143 77.0
e 71 159 5.0
e 71 263 7.0
e 71 227 94.0
e 71 156 63.0
e 71 276 30.0
e 72 43 70.0
e 72 158 36.0
e 72 57 2.0
e 72 174 17.0
e 72 154 21.0
e 72 59 34.0
e 72 315 41.0
e 72 234 76.0
e 72 76 73.0
e 72 249 84.0
e 72 191 45.0
e 72 307 24.0
e 72 231 17.0
e 72 148 53.0
e 72 23 70.0
e 72 199 65.0
e 72 117 17.0
e 72 177 8.0
e 72 207 55.0
e 72 291 59.0
e 72 185 81.0
e 72 311 88.0
e 72 180 19.0
e 72 208 63.0
e 72 7 66.0
e 72 102 6.0
e 73 195 5.0
e 73 297 9.0
e 73 245 7.0
e 73 246 6.0
e 74 41 5.0
e 75 80 5.0
e 75 168 1.0
e 75 240 5.0
e 75 191 1.0
e 77 19 1.0
e 78 79 1.0
e 78 175 3.0
e 78 50 8.0
e 78 64 11.0
e 81 309 24.0
e 81 229 8.0
e 81 122 87.0
e 81 241 85.0
e 81 45 28.0
e 81 269 64.0
e 81 21 18.0
e 81 85 44.0
e 81 202 56.0
e 81 153 98.0
e 81 288 35.0
e 81 266 43.0
e 81 126 1.0
e 81 271 86.0
e 81 268 45.0
e 81 273 41.0
e 81 9 18.0
e 81 80 49.0
e 81 274 77.0
e 81 198 31.0
e 81 270 72.0
e 81 3 10.0
e 81 89 43.0
e 81 25 35.0
e 81 178 18.0
e 83 216 10.0
e 83 261 4.0
e 84 75 1.0
e 84 296 40.0
e 84 151 11.0
e 84 180 4.0
e 84 204 19.0
e 85 272 74.0
e 85 67 16.0
e 85 194 86.0
e 85 139 12.0
e 85 53 86.0
e 85 18 48.0
e 85 21 6.0
e 85 58 43.0
e 85 299 11.0
e 85 14 3.0
e 85 181 28.0
e 85 110 68.0
e 85 125 88.0
e 85 84 32.0
e 85 69 76.0
e 85 219 26.0
e 85 237 65.0
e 85 224 49.0
e 85 169 19.0
e 85 162 100.0
e 85 229 2.0
e 85 144 30.0
e 85 106 13.0
e 85 38 58.0
e 85 76 67.0
e 86 238 71.0
e 86 96 3.0
e 86 143 1.0
e 86 77 10.0
e 88 234 1.0
e 90 159 5.0
e 90 133 2.0
e 91 245 1.0
e 92 36 20.0
e 92 241 2.0
e 92 230 5.0
e 92 41 2.0
e 92 227 15.0
e 92 50 6.0
e 92 294 14.0
e 97 113 83.0
e 97 143 25.0
e 97 51 74.0
e 97 81 72.0
e 97 215 17.0
e 97 180 85.0
e 97 289 38.0
e 97 297 29.0
e 97 290 100.0
e 97 198 81.0
e 97 266 97.0
e 97 190 80.0
e 97 138 21.0
e 97 158 89.0
e 97 292 16.0
e 97 192 88.0
e 97 230 58.0
e 97 151 64.0
e 97 238 63.0
e 97 204 59.0
e 97 118 5.0
e 97 181 27.0
e 97 71 61.0
e 97 275 60.0
e 97 216 75.0
e 98 285 6.0
e 98 55 9.0
e 98 163 2.0
e 99 225 3.0
e 99 245 4.0
e 99 194 83.0
e 99 176 8.0
e 99 151 1.0
e 99 101 16.0
e 101 315 4.0
e 101 151 4.0
e 101 96 1.0
e 103 14 9.0
e 103 104 9.0
e 103 149 14.0
e 103 182 2.0
e 103 274 8.0
e 103 301 4.0
e 110 213 8.0
e 110 33 10.0
e 112 158 25.0
e 112 181 3.0
e 113 305 11.0
e 113 275 5.0
e 113 79 5.0
e 113 169 19.0
e 115 211 5.0
e 116 37 4.0
e 119 297 1.0
e 120 299 4.0
e 121 18 4.0
e 123 83 61.0
e 123 143 73.0
e 123 287 91.0
e 123 265 89.0
e 123 238 26.0
e 123 25 86.0
e 123 93 9.0
e 123 281 42.0
e 123 291 88.0
e 123 100 10.0
e 123 137 22.0
e 123 275 31.0
e 123 136 36.0
e 123 183 19.0
e 123 68 9.0
e 123 114 50.0
e 123 230 48.0
e 123 263 3.0
e 123 62 38.0
e 123 107 89.0
e 123 140 24.0
e 123 229 8.0
e 123 60 5.0
e 123 201 35.0
e 123 115 59.0
e 123 240 30.0
e 123 52 46.0
e 124 44 2.0
e 125 216 5.0
e 125 2 20.0
e 125 222 11.0
e 125 236 6.0
e 125 138 25.0
e 125 8 9.0
e 127 260 10.0
e 127 254 2.0
e 127 136 85.0
e 127 287 7.0
e 128 229 20.0
e 130 94 1.0
e 131 16 1.0
e 134 62 91.0
e 134 63 23.0
e 134 61 1.0
e 134 130 10.0
e 134 17 76.0
e 134 317 10.0
e 134 132 15.0
e 136 200 52.0
e 136 258 12.0
e 136 155 36.0
e 136 89 20.0
e 136 46 14.0
e 136 176 77.0
e 136 96 55.0
e 136 142 75.0
e 136 99 85.0
e 136 275 72.0
e 136 91 85.0
e 136 90 20.0
e 136 232 40.0
e 136 118 76.0
e 136 169 50.0
e 136 206 77.0
e 136 277 83.0
e 136 133 76.0
e 136 192 93.0
e 136 174 85.0
e 136 170 14.0
e 136 198 16.0
e 136 278 57.0
e 136 259 96.0
e 142 214 22.0
e 142 1 22.0
e 142 211 89.0
e 142 88 42.0
e 142 22 53.0
e 142 42 58.0
e 142 85 74.0
e 142 224 94.0
e 142 269 82.0
e 142 52 18.0
e 142 28 54.0
e 142 43 54.0
e 142 30 50.0
e 142 262 52.0
e 142 234 44.0
e 142 235 59.0
e 142 302 1.0
e 142 279 31.0
e 142 101 50.0
e 142 44 22.0
e 142 45 32.0
e 142 25 45.0
e 142 281 52.0
e 142 207 34.0
e 142 236 80.0
e 145 72 41.0
e 145 218 47.0
e 145 70 10.0
e 145 255 33.0
e 145 131 53.0
e 145 105 76.0
e 145 13 95.0
e 145 156 19.0
e 145 249 54.0
e 145 49 92.0
e 145 254 94.0
e 145 83 79.0
e 145 128 41.0
e 145 48 79.0
e 145 163 30.0
e 145 91 75.0
e 145 152 8.0
e 145 212 30.0
e 145 65 30.0
e 145 33 22.0
e 145 93 10.0
e 145 154 92.0
e 145 314 28.0
e 145 66 93.0
e 145 60 49.0
e 146 315 1.0
e 146 155 7.0
e 146 98 1.0
e 146 128 3.0
e 147 167 98.0
e 147 88 45.0
e 147 243 49.0
e 147 245 34.0
e 147 97 100.0
e 147 193 68.0
e 147 29 59.0
e 147 27 77.0
e 147 164 60.0
e 147 109 69.0
e 147 202 30.0
e 147 110 80.0
e 147 108 76.0
e 147 233 1.0
e 147 270 65.0
e 147 267 75.0
e 147 244 39.0
e 147 275 49.0
e 147 314 35.0
e 147 85 6.0
e 147 116 41.0
e 147 182 85.0
e 147 41 91.0
e 147 102 55.0
e 147 93 26.0
e 152 82 1.0
e 157 37 5.0
e 158 85 53.0
e 158 277 61.0
e 158 171 75.0
e 158 56 43.0
e 158 247 15.0
e 158 169 83.0
e 158 34 75.0
e 158 80 23.0
e 158 12 66.0
e 158 81 28.0
e 158 14 45.0
e 158 289 70.0
e 158 299 51.0
e 158 276 16.0
e 158 92 52.0
e 158 91 58.0
e 158 195 80.0
e 158 170 66.0
e 158 250 2.0
e 158 130 31.0
e 158 15 73.0
e 158 295 31.0
e 158 165 10.0
e 158 273 52.0
e 159 18 2.0
e 159 260 4.0
e 161 309 2.0
e 164 15 1.0
e 168 111 1.0
e 171 135 3.0
e 171 269 4.0
e 171 309 12.0
e 173 262 33.0
e 173 247 80.0
e 173 293 52.0
e 173 149 50.0
e 173 55 16.0
e 173 112 40.0
e 173 260 67.0
e 173 1 1.0
e 173 305 98.0
e 173 236 45.0
e 173 261 37.0
e 173 228 35.0
e 173 239 3.0
e 173 172 49.0
e 173 88 14.0
e 173 211 65.0
e 173 102 78.0
e 173 249 49.0
e 173 226 11.0
e 173 309 47.0
e 173 269 86.0
e 173 298 89.0
e 173 89 72.0
e 173 165 6.0
e 173 76 46.0
e 175 263 1.0
e 175 224 1.0
e 179 62 5.0
e 179 163 1.0
e 180 56 88.0
e 186 197 9.0
e 186 235 9.0
e 186 168 2.0
e 186 157 7.0
e 187 246 74.0
e 187 207 20.0
e 187 293 40.0
e 187 81 96.0
e 187 144 76.0
e 187 68 66.0
e 187 118 87.0
e 187 179 10.0
e 187 19 44.0
e 187 219 91.0
e 187 135 53.0
e 187 318 74.0
e 187 250 16.0
e 187 255 52.0
e 187 103 87.0
e 187 185 65.0
e 187 213 46.0
e 187 48 80.0
e 187 56 21.0
e 187 88 38.0
e 187 104 20.0
e 187 53 68.0
e 187 216 36.0
e 187 111 32.0
e 187 25 4.0
e 187 60 56.0
e 187 153 49.0
e 192 284 2.0
e 192 101 4.0
e 192 269 11.0
e 192 98 14.0
e 194 19 32.0
e 194 168 3.0
e 194 247 88.0
e 194 197 18.0
e 194 82 62.0
e 194 230 76.0
e 194 100 20.0
e 194 107 90.0
e 194 40 60.0
e 194 137 27.0
e 194 272 41.0
e 194 158 99.0
e 194 240 96.0
e 194 142 69.0
e 194 106 10.0
e 194 285 12.0
e 194 104 100.0
e 194 156 95.0
e 194 3 35.0
e 194 248 49.0
e 194 29 5.0
e 194 280 4.0
e 194 229 8.0
e 194 254 94.0
e 195 252 7.0
e 196 257 1.0
e 196 151 3.0
e 199 125 62.0
e 199 8 87.0
e 199 176 40.0
e 199 283 87.0
e 199 56 95.0
e 199 14 57.0
e 199 131 85.0
e 199 122 82.0
e 199 80 12.0
e 199 126 61.0
e 199 33 34.0
e 199 240 96.0
e 199 48 76.0
e 199 230 62.0
e 199 30 37.0
e 199 118 62.0
e 199 300 88.0
e 199 22 6.0
e 199 251 11.0
e 199 129 76.0
e 199 312 23.0
e 199 114 3.0
e 199 91 72.0
e 199 297 71.0
e 199 162 61.0
e 203 58 3.0
e 203 200 4.0
e 204 252 11.0
e 206 211 4.0
e 206 294 17.0
e 209 80 2.0
e 210 159 51.0
e 210 105 7.0
e 210 145 29.0
e 210 12 35.0
e 210 249 91.0
e 210 307 80.0
e 210 218 90.0
e 210 205 12.0
e 210 194 92.0
e 210 92 35.0
e 210 252 100.0
e 210 127 88.0
e 210 22 89.0
e 210 102 24.0
e 210 103 83.0
e 210 228 49.0
e 210 276 42.0
e 210 42 32.0
e 210 138 30.0
e 210 139 31.0
e 210 204 98.0
e 210 136 14.0
e 210 47 15.0
e 210 303 70.0
e 210 289 77.0
e 210 29 82.0
e 210 155 6.0
e 213 140 4.0
e 213 71 59.0
e 213 96 16.0
e 213 270 1.0
e 214 13 10.0
e 214 190 12.0
e 220 182 11.0
e 220 242 7.0
e 220 183 12.0
e 220 232 23.0
e 220 303 77.0
e 220 8 21.0
e 221 13 6.0
e 222 105 4.0
e 228 130 32.0
e 228 255 99.0
e 228 227 94.0
e 228 283 82.0
e 228 194 88.0
e 228 2 77.0
e 228 239 38.0
e 228 167 15.0
e 228 49 30.0
e 228 217 56.0
e 228 313 20.0
e 228 50 10.0
e 228 284 6.0
e 228 23 56.0
e 228 21 69.0
e 228 180 25.0
e 228 61 80.0
e 228 137 26.0
e 228 52 46.0
e 228 250 68.0
e 228 97 12.0
e 228 51 25.0
e 228 263 67.0
e 228 171 73.0
e 233 22 44.0
e 233 36 43.0
e 233 293 2.0
e 233 107 2.0
e 233 215 98.0
e 233 201 21.0
e 233 202 35.0
e 233 182 24.0
e 233 259 44.0
e 233 178 86.0
e 233 63 29.0
e 233 71 51.0
e 233 19 82.0
e 233 65 89.0
e 233 157 44.0
e 233 216 48.0
e 233 189 24.0
e 233 181 55.0
e 233 199 13.0
e 233 110 19.0
e 233 104 36.0
e 233 193 91.0
e 233 97 50.0
e 233 165 67.0
e 233 263 3.0
e 233 224 30.0
e 237 10 11.0
e 238 245 5.0
e 238 213 7.0
e 238 176 67.0
e 238 15 85.0
e 238 134 81.0
e 238 10 51.0
e 238 262 51.0
e 238 231 16.0
e 238 94 40.0
e 238 226 72.0
e 238 290 2.0
e 238 224 90.0
e 238 185 53.0
e 238 272 18.0
e 238 88 58.0
e 238 197 71.0
e 238 117 15.0
e 238 130 17.0
e 238 70 38.0
e 238 8 45.0
e 238 107 29.0
e 238 105 48.0
e 238 85 71.0
e 238 178 38.0
e 247 233 83.0
e 247 254 28.0
e 247 253 29.0
e 247 290 35.0
e 247 151 71.0
e 247 81 61.0
e 247 203 69.0
e 247 171 83.0
e 247 126 68.0
e 247 93 75.0
e 247 92 88.0
e 247 277 18.0
e 247 289 9.0
e 247 219 36.0
e 247 252 49.0
e 247 115 60.0
e 247 236 4.0
e 247 285 14.0
e 247 220 31.0
e 247 261 35.0
e 247 262 31.0
e 247 192 92.0
e 247 89 66.0
e 250 302 42.0
e 250 249 35.0
e 250 247 4.0
e 250 304 71.0
e 250 83 63.0
e 250 113 69.0
e 250 42 24.0
e 250 122 39.0
e 250 124 38.0
e 250 277 4.0
e 250 309 57.0
e 250 168 99.0
e 250 19 42.0
e 250 29 11.0
e 250 37 66.0
e 250 311 28.0
e 250 178 72.0
e 250 267 60.0
e 250 92 37.0
e 250 232 55.0
e 250 38 11.0
e 250 143 86.0
e 250 65 62.0
e 251 211 99.0
e 251 59 62.0
e 251 185 77.0
e 251 180 76.0
e 251 136 47.0
e 251 305 88.0
e 251 111 93.0
e 251 6 10.0
e 251 51 3.0
e 251 267 45.0
e 251 263 38.0
e 251 141 36.0
e 251 182 93.0
e 251 289 61.0
e 251 257 52.0
e 251 300 46.0
e 251 61 34.0
e 251 95 51.0
e 251 108 62.0
e 251 164 58.0
e 251 112 47.0
e 251 293 29.0
e 251 144 77.0
e 251 218 9.0
e 251 284 36.0
e 253 194 91.0
e 253 315 45.0
e 253 120 56.0
e 253 242 9.0
e 253 27 12.0
e 253 289 19.0
e 253 143 96.0
e 253 48 51.0
e 253 317 4.0
e 253 283 10.0
e 253 76 79.0
e 253 313 62.0
e 253 201 42.0
e 253 221 59.0
e 253 38 75.0
e 253 104 74.0
e 253 240 26.0
e 253 292 58.0
e 253 192 17.0
e 253 95 22.0
e 253 168 9.0
e 253 198 31.0
e 253 211 86.0
e 253 23 91.0
e 253 93 30.0
e 264 146 5.0
e 267 172 42.0
e 267 249 58.0
e 267 188 100.0
e 267 225 28.0
e 267 137 59.0
e 267 140 36.0
e 267 213 43.0
e 267 176 69.0
e 267 234 71.0
e 267 201 54.0
e 267 302 51.0
e 267 37 81.0
e 267 71 66.0
e 267 43 16.0
e 267 68 9.0
e 267 46 87.0
e 267 194 30.0
e 267 123 3.0
e 267 40 12.0
e 267 59 14.0
e 267 116 51.0
e 267 297 56.0
e 267 214 55.0
e 267 44 80.0
e 270 153 7.0
e 270 179 16.0
e 271 57 83.0
e 271 172 42.0
e 271 66 3.0
e 271 155 77.0
e 271 259 92.0
e 271 141 27.0
e 271 299 55.0
e 271 264 39.0
e 271 243 8.0
e 271 106 93.0
e 271 223 98.0
e 271 291 3.0
e 271 266 64.0
e 271 284 86.0
e 271 181 48.0
e 271 214 39.0
e 271 20 42.0
e 271 159 46.0
e 271 110 40.0
e 271 77 55.0
e 271 14 32.0
e 271 308 34.0
e 271 4 83.0
e 271 148 16.0
e 271 221 81.0
e 271 152 50.0
e 281 26 13.0
e 281 196 3.0
e 281 126 22.0
e 281 197 20.0
e 281 136 61.0
e 282 88 1.0
e 282 250 77.0
e 283 76 58.0
e 283 38 21.0
e 283 155 47.0
e 283 260 24.0
e 283 75 20.0
e 283 134 49.0
e 283 222 51.0
e 283 80 53.0
e 283 281 28.0
e 283 207 90.0
e 283 91 9.0
e 283 275 92.0
e 283 261 74.0
e 283 266 39.0
e 283 129 53.0
e 283 302 97.0
e 283 9 52.0
e 283 270 30.0
e 283 262 96.0
e 283 291 19.0
e 283 107 64.0
e 283 284 30.0
e 283 263 58.0
e 285 278 7.0
e 286 30 93.0
e 286 129 19.0
e 286 302 10.0
e 286 166 7.0
e 286 227 2.0
e 287 247 27.0
e 287 17 43.0
e 287 47 26.0
e 287 149 37.0
e 287 52 33.0
e 287 41 46.0
e 287 150 10.0
e 287 265 34.0
e 287 168 15.0
e 287 104 9.0
e 287 292 89.0
e 291 310 14.0
e 291 212 24.0
e 292 71 58.0
e 292 266 47.0
e 292 271 56.0
e 292 209 96.0
e 292 177 78.0
e 292 122 10.0
e 292 149 28.0
e 292 130 10.0
e 292 39 91.0
e 292 192 58.0
e 292 196 42.0
e 292 103 7.0
e 292 212 67.0
e 292 147 49.0
e 292 73 23.0
e 292 85 99.0
e 292 215 40.0
e 292 303 57.0
e 292 298 53.0
e 292 293 68.0
e 292 311 45.0
e 292 210 84.0
e 292 114 13.0
e 296 4 3.0
e 296 226 48.0
e 296 125 1.0
e 296 177 31.0
e 296 174 10.0
e 296 145 72.0
e 296 144 19.0
e 296 160 16.0
e 296 232 46.0
e 296 167 34.0
e 303 48 17.0
e 303 126 6.0
e 303 191 54.0
e 303 255 1.0
e 303 282 79.0
e 303 131 29.0
e 303 171 83.0
e 303 177 27.0
e 303 103 91.0
e 303 138 21.0
e 303 96 60.0
e 303 100 53.0
e 303 86 65.0
e 303 294 52.0
e 303 295 13.0
e 303 187 23.0
e 303 7 56.0
e 303 120 81.0
e 303 72 43.0
e 303 193 33.0
e 304 95 44.0
e 304 139 26.0
e 304 123 97.0
e 304 295 20.0
e 304 152 24.0
e 304 176 9.0
e 304 151 20.0
e 304 188 17.0
e 304 177 1.0
e 304 235 40.0
e 304 66 13.0
e 304 147 29.0
e 306 169 5.0
e 313 229 16.0
e 316 85 79.0
e 316 111 30.0
e 316 5 55.0
e 316 57 59.0
e 316 310 27.0
e 316 21 18.0
e 316 42 53.0
e 316 110 39.0
e 316 232 15.0
e 316 193 47.0
e 316 262 78.0
e 316 27 26.0
e 316 54 27.0
e 316 0 36.0
e 316 1 13.0
e 316 268 26.0
e 316 152 36.0
e 316 161 15.0
e 316 13 66.0
e 316 237 29.0
e 316 175 8.0
e 316 67 76.0
e 316 298 62.0
e 316 66 45.0
e 316 302 87.0
e 319 120 3.0
